c ---- [ banner ] ------------------------------------------------------------
c
c KISSAT SAT Solver
c Copyright (c) 2019-2020 Armin Biere JKU Linz
c 
c Version 1.0.3 f9da1543a371c83b83e7246f0a6c4bd728008d06
c gcc (Ubuntu 9.4.0-1ubuntu1~20.04.1) 9.4.0 -g -W -Wall -O3 -DNEMBEDDED -DNDEBUG -DNMETRICS -DNSTATISTICS
c Sun Mar 12 15:12:11 IST 2023 Linux Karthikeya 5.15.0-67-generic x86_64
c
c ---- [ parsing ] -----------------------------------------------------------
c
c opened and reading DIMACS file:
c 
c   ../../../benchmark_instances_2022/00aefd1fc30c425075166ca051e57218-barman-pfile10-038.sas.ex.15.cnf
c 
c parsed 'p cnf 430288 976656' header
c closing input after reading 404780932 bytes (386 MB)
c finished parsing after 2.78 seconds
c
c ---- [ solving ] -----------------------------------------------------------
c
c  seconds  reductions redundant irredundant
c          MB   restarts    trail       variables
c           level  conflicts   glue           remaining
c
c *  2.78 286 0  0  0   0   0 0% 0 916722 359658 84%
c {  2.78 286 0  0  0   0   0 0% 0 916722 359658 84%
c i  3.06 299 93508  0  2 279 145 72% 52 916722 359618 84%
c -  3.54 301 77531  1  2 327  80 60% 45 910181 359546 84%
c i  3.57 301 58288  1 13 401 119 46% 133 910181 359432 84%
c i  3.72 304 47335  1 42 455 165 38% 155 910181 359429 84%
c i  3.72 304 47150  1 43 456 165 37% 154 910181 359427 84%
c i  3.73 304 45879  1 48 463 170 37% 150 910181 359313 84%
c -  3.86 305 18371  2 63 928 328 18% 72 908282 359313 84%
c }  3.87 305 15940  2 63 1003 379 16% 64 908282 359313 84%
c [  3.87 305 0  2 63 1003 379 0% 0 908282 359313 84%
c a  4.30 307 0  2 63 1003 379 0% 0 689243 212050 49%
c O  4.33 307 29810  2 63 1004 380 76% 25 689243 212050 49%
c -  5.48 299 21013  3 63 1829 558 63% 73 689243 212050 49%
c d  6.51 303 16129  3 64 2503 1085 53% 59 689202 212037 49%
c d  6.80 303 16129  3 64 2503 1085 53% 59 689177 212032 49%
c 3  6.96 291 16129  3 64 2503 1095 53% 59 689177 212032 49%
c f  7.31 297 16129  3 64 2503 309391 53% 59 689177 211337 49%
c f  7.34 298 16129  3 64 2503 310882 53% 59 684680 211337 49%
c u  7.50 298 16129  3 64 2503 311105 53% 59 684680 211337 49%
c
c  seconds      reductions   redundant    irredundant
c          MB       restarts         trail        variables
c             level    conflicts         glue           remaining
c
c v  7.59 298 16129  3 64 2503 311633 53% 59 684680 211337 49%
c d 11.31 320 16129  3 64 2503 311633 53% 59 683484 211325 49%
c d 11.63 320 16129  3 64 2503 311633 53% 59 683464 211321 49%
c i 11.65 320 16129  3 64 2503 311633 53% 59 683464 211321 49%
c ] 11.74 293 15787  3 64 2525 311654 52% 58 683464 211321 49%
c { 11.74 293 15940  3 64 2525 311654 16% 64 683464 211321 49%
c a 12.46 297 9564  3 64 3010 151732 16% 44 676899 210609 49%
c I 12.47 301 9555  3 64 3011 151733 16% 44 676899 210609 49%
c - 12.50 303 9301  4 64 3055 837 16% 44 676899 210609 49%
c i 13.07 308 4229  4 143 4269 1589 12% 39 676899 210607 49%
c i 13.07 308 4225  4 144 4271 1589 12% 39 676899 210606 49%
c i 13.07 308 4223  4 144 4272 1589 12% 39 676899 210602 49%
c - 13.17 310 3726  5 153 4572 1294 11% 38 676827 210602 49%
c } 13.17 310 3726  5 153 4572 1294 11% 38 676827 210602 49%
c [ 13.17 310 15787  5 153 4572 1294 52% 58 676827 210602 49%
c i 13.19 310 14295  5 153 4681 1394 48% 53 676827 210601 49%
c a 13.92 310 6339  5 154 6058 2282 30% 43 671741 206178 48%
c B 13.92 310 6336  5 154 6059 2283 30% 43 671741 206178 48%
c - 14.06 311 5475  6 154 6372 1763 27% 41 671741 206178 48%
c i 14.06 311 5440  6 154 6386 1775 27% 40 671741 206176 48%
c
c  seconds     reductions   redundant   irredundant
c          MB      restarts        trail        variables
c            level     conflicts       glue           remaining
c
c i 14.06 311 5407  6 154 6399 1785 26% 40 671741 206174 48%
c i 14.31 313 3901  6 155 7124 2319 20% 43 671741 206139 48%
c i 14.37 291 3658  6 155 7307 2446 19% 40 671741 206060 48%
c 3 14.92 294 3541  6 155 7503 2624 19% 42 670930 206060 48%
c f 15.15 297 3541  6 155 7503 61249 19% 42 670930 206060 48%
c u 15.28 299 3541  6 155 7503 61412 19% 42 670930 206060 48%
c v 15.36 299 3541  6 155 7503 62273 19% 42 670930 206059 48%
c i 15.74 299 3541  6 155 7503 62273 19% 42 670919 206059 48%
c i 15.75 299 3535  6 155 7513 62279 19% 41 670919 205951 48%
c i 15.76 299 3529  6 155 7522 62286 19% 41 670919 205904 48%
c i 15.76 299 3520  6 155 7535 62295 19% 41 670919 205836 48%
c i 15.76 299 3494  6 155 7573 62322 19% 41 670919 205833 48%
c i 15.76 299 3491  6 155 7578 62325 19% 41 670919 205831 48%
c i 15.76 299 3483  6 155 7590 62332 18% 41 670919 205830 48%
c i 15.77 299 3468  6 155 7611 62348 18% 40 670919 205829 48%
c i 15.77 299 3462  6 155 7620 62338 18% 40 670919 205828 48%
c i 15.77 299 3440  6 155 7654 62366 18% 40 670919 205827 48%
c i 15.77 299 3439  6 155 7655 62366 18% 40 670919 205826 48%
c i 15.77 299 3419  6 155 7684 62389 18% 40 670919 205825 48%
c i 15.81 299 3351  6 155 7789 62478 18% 41 670919 205822 48%
c
c  seconds     reductions    redundant   irredundant
c          MB      restarts         trail        variables
c            level     conflicts        glue           remaining
c
c i 15.81 299 3344  6 155 7799 62486 18% 40 670919 205821 48%
c i 15.85 299 3210  6 155 8019 62652 17% 41 670919 205800 48%
c i 15.85 299 3207  6 155 8023 62655 17% 41 670919 205799 48%
c i 15.86 299 3178  6 155 8070 62692 17% 41 670919 205797 48%
c i 15.86 299 3176  6 155 8073 62694 17% 41 670919 205796 48%
c i 15.86 299 3174  6 155 8076 62695 17% 41 670919 205794 48%
c i 15.86 299 3172  6 155 8080 62698 17% 41 670919 205793 48%
c i 15.86 299 3165  6 155 8091 62703 17% 41 670919 205792 48%
c i 15.87 299 3143  6 155 8127 62728 17% 41 670919 205791 48%
c i 15.87 299 3140  6 155 8132 62731 17% 41 670919 205790 48%
c i 15.88 299 3121  6 155 8162 62748 17% 41 670919 205789 48%
c - 15.92 300 2935  7 155 8481 2354 16% 40 667686 205710 48%
c a 16.58 302 2116  7 156 10059 3646 15% 34 664861 205359 48%
c a 17.82 682 2116  7 156 10059 3646 15% 34 664420 205045 48%
c W 17.87 294 2115  7 156 10060 3647 15% 34 664420 205045 48%
c i 18.10 297 1866  7 157 10754 4152 14% 32 664420 205043 48%
c - 18.15 297 1827  8 157 10886 3117 14% 33 664400 205043 48%
c s 24.40 300 1531  8 158 12501 4179 12% 45 664078 205043 48%
c e 27.03 689 1531  8 158 12501 4179 12% 45 540090 69430 16%
c s 36.68 689 1531  8 158 12501 4179 12% 45 540089 69430 16%
c
c  seconds     reductions    redundant   irredundant
c          MB      restarts         trail        variables
c            level      conflicts       glue          remaining
c
c i 37.64 299 1491  8 158 12754 3729 13% 44 540088 69429 16%
c i 37.64 299 1488  8 158 12773 3746 13% 44 540088 69428 16%
c i 37.65 299 1479  8 158 12830 3798 13% 44 540088 69231 16%
c i 37.66 299 1467  8 158 12908 3859 13% 43 540088 69230 16%
c i 37.67 299 1448  8 158 13028 3952 13% 43 540088 69229 16%
c ] 37.84 302 1395  8 158 13402 4243 14% 42 540088 69229 16%
c { 37.84 302 3726  8 158 13402 4243 11% 38 540088 69229 16%
c - 38.33 293 3436  9 158 13586 3329 13% 36 535111 69140 16%
c i 38.57 297 2726  9 254 14156 3650 14% 43 535111 69139 16%
c i 38.64 297 2364  9 266 14514 3958 14% 40 535111 69138 16%
c i 38.64 297 2336  9 266 14542 3967 14% 40 535111 69136 16%
c i 38.64 297 2329  9 266 14550 3970 14% 40 535111 69135 16%
c i 38.80 299 2201  9 303 14793 4140 15% 42 535111 69134 16%
c 3 39.41 291 2114  9 369 15003 4545 15% 44 535043 69134 16%
c t 39.44 291 2114  9 369 15003 4545 15% 44 535029 69134 16%
c f 39.61 296 2114  9 369 15003 224131 15% 44 535029 69033 16%
c u 39.76 298 2114  9 369 15003 225857 15% 44 535029 69033 16%
c v 39.84 298 2114  9 369 15003 226180 15% 44 535029 68926 16%
c d 42.90 313 2114  9 369 15003 226135 15% 44 533148 68923 16%
c i 43.21 313 2114  9 369 15003 226135 15% 44 533148 68923 16%
c
c  seconds     reductions     redundant    irredundant
c          MB      restarts           trail        variables
c            level      conflicts         glue          remaining
c
c a 43.74 308 2090  9 388 15064 101995 14% 47 531067 68701 16%
c O 43.76 287 2089  9 388 15065 101996 14% 47 531067 68701 16%
c i 44.10 290 1998  9 428 15311 102100 15% 48 531067 68700 16%
c - 44.51 307 1554 10 486 16602 6527 18% 55 531057 68699 16%
c i 44.63 309 1497 10 514 16826 6608 19% 55 531057 68611 16%
c i 44.63 309 1495 10 514 16834 6605 19% 55 531057 68502 16%
c i 44.63 309 1494 10 514 16838 6606 19% 55 531057 68409 16%
c i 44.78 310 1422 10 520 17238 6882 19% 54 531057 68408 16%
c i 45.45 300 1378 10 587 17470 7072 19% 54 531057 68327 16%
c i 45.50 300 1331 10 590 17742 7337 18% 56 531057 68251 16%
c } 45.77 304 1218 10 613 18403 7806 20% 53 531057 68234 16%
c [ 45.77 304 1395 10 613 18403 7806 14% 42 531057 68234 16%
c - 46.68 306 1225 11 614 19902 4806 17% 43 527895 68234 16%
c a 47.33 307 1107 11 615 21067 5695 18% 47 523339 68159 16%
c B 47.33 307 1107 11 615 21068 5696 18% 47 523339 68159 16%
c i 47.38 307 1079 11 615 21363 5794 18% 47 523339 68158 16%
c i 47.73 307 972 11 615 22500 6414 18% 44 523339 68113 16%
c i 47.86 307 943 11 615 22816 6664 18% 44 523339 68059 16%
c - 48.09 308 885 12 615 23502 5731 18% 42 522661 68059 16%
c 3 49.08 301 776 12 617 25005 7163 19% 40 521810 68059 16%
c
c  seconds    reductions    redundant   irredundant
c          MB     restarts         trail        variables
c            level     conflicts       glue          remaining
c
c t 49.11 301 776 12 617 25005 7163 19% 40 521761 68059 16%
c f 49.26 304 776 12 617 25005 71276 19% 40 521761 68059 16%
c u 49.43 304 776 12 617 25005 71913 19% 40 521761 68059 16%
c v 49.50 305 776 12 617 25005 72477 19% 40 521761 68059 16%
c i 52.66 313 748 12 618 25927 73247 19% 39 521761 68058 16%
c ] 53.06 299 725 12 618 26588 73837 19% 38 521761 68058 16%
c { 53.06 299 1218 12 618 26588 73837 20% 53 521761 68058 16%
c i 53.17 304 1176 12 635 26772 73983 20% 53 521761 68057 16%
c - 53.42 311 1082 13 660 27402 7525 21% 49 521748 68057 16%
c a 53.77 312 1074 13 661 28228 7568 21% 49 521635 67993 16%
c a 54.86 669 1074 13 661 28228 7568 21% 49 521626 67988 16%
c W 54.89 302 1074 13 661 28229 7569 21% 49 521626 67988 16%
c i 55.45 317 897 13 680 29899 8927 20% 42 521626 67919 16%
c - 56.11 327 748 14 680 31630 7322 20% 38 520906 67919 16%
c i 57.01 329 556 14 724 34446 9491 19% 32 520906 66166 15%
c i 57.01 330 555 14 724 34462 9505 19% 32 520906 66108 15%
c i 57.07 330 544 14 724 34649 9645 19% 32 520906 65963 15%
c } 57.09 330 540 14 724 34705 9689 19% 32 520906 63808 15%
c 0 57.09 330 540 14 724 34705 9689 19% 32 520906 63808 15%
c
c ---- [ result ] ------------------------------------------------------------
c
s UNSATISFIABLE
c
c ---- [ profiling ] ---------------------------------------------------------
c
c          37.53   65.74 %  simplify
c          18.82   32.97 %  eliminate
c          16.77   29.38 %  search
c          14.06   24.64 %  probe
c           9.00   15.76 %  vivify
c           8.51   14.91 %  stable
c           8.26   14.47 %  focused
c           3.76    6.58 %  substitute
c           2.97    5.20 %  autarky
c           2.78    4.87 %  parse
c           1.67    2.93 %  walking
c           1.65    2.90 %  reduce
c           0.88    1.55 %  failed
c           0.34    0.59 %  ternary
c           0.09    0.16 %  transitive
c =============================================
c          57.09  100.00 %  total
c
c ---- [ statistics ] --------------------------------------------------------
c
c conflicts:                            34705              607.92 per second
c decisions:                           646015               18.61 per conflict
c propagations:                      70689611          1238247    per second
c reductions:                              14             2479    interval
c rephased:                                 7             4958    interval
c restarts:                               724               47.94 interval
c MAB stats : 6 6 
c
c ---- [ resources ] ---------------------------------------------------------
c
c maximum-resident-set-size:        725450752 bytes        692 MB
c process-time:                            57s              57.09 seconds
c
c ---- [ shutting down ] -----------------------------------------------------
c
c exit 20
